SDVRP instances/custom_instances/p04_16_splitx10_0.vrp
NAME:p04_16_splitx10_
BEST_KNOWN: 0
COMMENT: 0
DIMENSION: 696
CAPACITY: 2000
EDGE_WEIGHT_FORMAT: FUNCTION
EDGE_WEIGHT_TYPE: EXACT_2D
NODE_COORD_SECTION
1 0.00000 0.00000
2 -7 9
3 -7 9
4 -7 9
5 -7 9
6 32 -26
7 32 -26
8 32 -26
9 14 -23
10 14 -23
11 14 -23
12 14 -23
13 14 -23
14 14 -23
15 14 -23
16 5 -28
17 5 -28
18 5 -28
19 8 -6
20 8 -6
21 8 -6
22 8 -6
23 8 -6
24 29 -23
25 29 -23
26 29 -23
27 -30 -14
28 -30 -14
29 -30 -14
30 -30 -14
31 -30 -14
32 -30 -14
33 -30 -14
34 -18 -15
35 -18 -15
36 -18 -15
37 -18 -15
38 -18 -15
39 -7 7
40 -7 7
41 -7 7
42 -7 7
43 -7 7
44 5 -43
45 5 -43
46 5 -43
47 -9 -14
48 -9 -14
49 -9 -14
50 -9 -14
51 -9 -14
52 -9 -14
53 -9 -14
54 46 24
55 46 24
56 46 24
57 46 24
58 -17 -15
59 -17 -15
60 -17 -15
61 -17 -15
62 -17 -15
63 -17 -15
64 -17 -15
65 -24 41
66 -24 41
67 -24 41
68 -24 41
69 -24 41
70 -14 -32
71 -14 -32
72 -14 -32
73 -14 -32
74 38 -24
75 38 -24
76 38 -24
77 38 -24
78 38 -24
79 38 -24
80 38 -24
81 22 6
82 22 6
83 22 6
84 22 6
85 22 6
86 -39 -1
87 -39 -1
88 -39 -1
89 -39 -1
90 17 5
91 17 5
92 17 5
93 17 5
94 31 -1
95 31 -1
96 31 -1
97 31 -1
98 31 -1
99 31 -1
100 -6 18
101 -6 18
102 -6 18
103 -6 18
104 -6 18
105 11 -16
106 11 -16
107 11 -16
108 11 -16
109 -1 47
110 -1 47
111 -1 47
112 -1 47
113 -1 47
114 -1 47
115 -1 47
116 -1 47
117 -17 -15
118 -17 -15
119 7 37
120 7 37
121 7 37
122 7 37
123 7 37
124 19 -11
125 19 -11
126 19 -11
127 29 27
128 29 27
129 29 27
130 29 27
131 29 27
132 27 -13
133 27 -13
134 27 -13
135 27 -13
136 27 -13
137 -38 -39
138 -38 -39
139 -38 -39
140 44 -22
141 44 -22
142 44 -22
143 44 -22
144 44 -22
145 44 -22
146 -12 -40
147 -12 -40
148 -12 -40
149 -12 -40
150 10 26
151 10 26
152 10 26
153 10 26
154 10 26
155 10 26
156 -45 -14
157 -45 -14
158 -45 -14
159 -17 20
160 -17 20
161 -17 20
162 -17 20
163 -17 20
164 8 -37
165 8 -37
166 8 -37
167 -20 -26
168 -20 -26
169 -20 -26
170 -20 -26
171 -20 -26
172 19 -20
173 19 -20
174 19 -20
175 19 -20
176 19 -20
177 19 -20
178 19 -20
179 47 29
180 47 29
181 47 29
182 47 29
183 47 29
184 47 29
185 1 -49
186 1 -49
187 1 -49
188 1 -49
189 1 -49
190 1 -49
191 17 49
192 17 49
193 17 49
194 17 49
195 -30 38
196 -30 38
197 -30 38
198 -30 38
199 -30 38
200 -30 38
201 28 -48
202 28 -48
203 -29 -33
204 -29 -33
205 -29 -33
206 -29 -33
207 -29 -33
208 -29 -33
209 -29 -33
210 -32 3
211 -32 3
212 -32 3
213 42 -37
214 42 -37
215 42 -37
216 42 -37
217 42 -37
218 23 -11
219 23 -11
220 23 -11
221 23 -11
222 23 -11
223 23 -11
224 23 -32
225 23 -32
226 23 -32
227 29 -16
228 29 -16
229 29 -16
230 29 -16
231 29 -16
232 -32 24
233 -32 24
234 -32 24
235 -32 24
236 36 -17
237 36 -17
238 36 -17
239 36 -17
240 36 -17
241 36 -17
242 49 -28
243 49 -28
244 49 -28
245 49 -28
246 49 -28
247 49 -28
248 49 -28
249 -46 10
250 -46 10
251 -46 10
252 -46 10
253 -46 10
254 -49 -20
255 -49 -20
256 -49 -20
257 -46 -13
258 -46 -13
259 -46 -13
260 23 -20
261 23 -20
262 36 -10
263 36 -10
264 36 -10
265 -49 -39
266 -49 -39
267 -49 -39
268 45 3
269 45 3
270 45 3
271 45 3
272 45 3
273 -42 2
274 -42 2
275 -42 2
276 -42 2
277 -42 2
278 47 -22
279 47 -22
280 47 -22
281 24 27
282 24 27
283 -12 -4
284 -12 -4
285 -12 -4
286 -12 -4
287 -12 -4
288 -12 -4
289 41 -4
290 41 -4
291 41 -4
292 41 -4
293 41 -4
294 49 9
295 49 9
296 49 9
297 49 9
298 -25 7
299 -25 7
300 -25 7
301 -27 -31
302 -27 -31
303 -27 -31
304 20 -34
305 20 -34
306 20 -34
307 20 -34
308 20 -34
309 9 21
310 9 21
311 9 21
312 9 21
313 9 21
314 27 -17
315 27 -17
316 27 -17
317 27 -17
318 27 -17
319 27 -17
320 -2 25
321 -2 25
322 -2 25
323 -20 1
324 -20 1
325 -20 1
326 5 -11
327 5 -11
328 5 -11
329 5 -11
330 5 -11
331 5 -11
332 -41 18
333 -41 18
334 -41 18
335 -41 18
336 -41 18
337 -41 18
338 -33 17
339 -33 17
340 41 -48
341 41 -48
342 41 -48
343 41 -48
344 41 -48
345 -9 -40
346 -9 -40
347 -9 -40
348 -43 32
349 -43 32
350 -43 32
351 21 1
352 21 1
353 21 1
354 21 1
355 21 1
356 21 1
357 21 1
358 21 1
359 42 -31
360 42 -31
361 42 -31
362 42 -31
363 42 -31
364 42 -31
365 47 25
366 47 25
367 47 25
368 47 25
369 47 25
370 47 25
371 40 32
372 40 32
373 40 32
374 40 32
375 40 32
376 40 32
377 -15 -49
378 -15 -49
379 -15 -49
380 -15 -49
381 -15 -49
382 -15 -49
383 -15 -49
384 26 8
385 26 8
386 26 8
387 26 8
388 26 8
389 26 8
390 26 8
391 -41 -27
392 -41 -27
393 -41 -27
394 -41 -27
395 -41 -27
396 -19 -8
397 -19 -8
398 -19 -8
399 -19 -8
400 34 49
401 34 49
402 34 49
403 34 49
404 34 49
405 34 49
406 34 49
407 -46 -46
408 -46 -46
409 -46 -46
410 -46 -46
411 -46 -46
412 -46 -46
413 -5 30
414 -5 30
415 -5 30
416 -5 30
417 -5 30
418 29 7
419 29 7
420 29 7
421 27 -6
422 27 -6
423 27 -6
424 27 -6
425 27 -6
426 27 -6
427 35 36
428 35 36
429 35 36
430 21 -39
431 21 -39
432 21 -39
433 21 -39
434 21 -39
435 21 -39
436 -13 -18
437 -13 -18
438 -13 -18
439 -13 -18
440 -13 -18
441 -48 29
442 -48 29
443 -48 29
444 -48 29
445 -48 29
446 38 31
447 38 31
448 38 31
449 34 30
450 34 30
451 34 30
452 34 30
453 34 30
454 -19 18
455 -19 18
456 -19 18
457 12 29
458 12 29
459 12 29
460 12 29
461 -45 2
462 -45 2
463 -46 -2
464 -46 -2
465 -46 -2
466 -26 37
467 -26 37
468 -26 37
469 -26 37
470 -26 37
471 -26 37
472 -26 37
473 -26 37
474 -50 -48
475 -50 -48
476 -50 -48
477 12 44
478 12 44
479 12 44
480 12 44
481 12 44
482 50 -41
483 50 -41
484 50 -41
485 50 -41
486 50 -41
487 31 -10
488 31 -10
489 31 -10
490 9 0
491 9 0
492 -45 -41
493 -45 -41
494 -45 -41
495 -45 -41
496 -45 -41
497 -45 -41
498 -45 -41
499 -28 44
500 -28 44
501 -28 44
502 -28 44
503 -38 20
504 -38 20
505 -23 23
506 -23 23
507 -23 23
508 18 17
509 18 17
510 18 17
511 18 17
512 18 17
513 18 17
514 -13 -43
515 -13 -43
516 -13 -43
517 -13 -43
518 -13 -43
519 -13 -43
520 -2 40
521 -2 40
522 -2 40
523 -2 40
524 -2 40
525 39 -18
526 39 -18
527 39 -18
528 39 -18
529 39 -18
530 2 -23
531 2 -23
532 2 -23
533 2 -23
534 2 -23
535 2 -23
536 47 10
537 47 10
538 47 10
539 -37 -18
540 -37 -18
541 -37 -18
542 -37 -18
543 -37 -18
544 -37 -18
545 16 -26
546 16 -26
547 -38 27
548 -38 27
549 -38 27
550 23 49
551 23 49
552 23 49
553 23 49
554 35 -30
555 35 -30
556 35 -30
557 35 -30
558 35 -30
559 35 -30
560 -31 -24
561 -31 -24
562 -31 -24
563 -31 -24
564 -31 -24
565 37 21
566 37 21
567 -11 -49
568 -11 -49
569 -11 -49
570 -11 -49
571 -11 -49
572 7 19
573 7 19
574 7 19
575 7 19
576 7 19
577 -43 -49
578 -43 -49
579 -43 -49
580 -43 -49
581 -43 -49
582 -43 -49
583 -43 -49
584 -43 -49
585 -31 40
586 -31 40
587 -31 40
588 -31 40
589 -31 40
590 -31 40
591 -48 -4
592 -48 -4
593 -48 -4
594 -48 -4
595 42 18
596 42 18
597 42 18
598 42 18
599 42 18
600 42 18
601 42 18
602 42 18
603 -27 -2
604 -27 -2
605 -27 -2
606 -27 -2
607 -27 -2
608 -27 -2
609 -42 1
610 -42 1
611 -42 1
612 -42 1
613 -50 21
614 -50 21
615 -50 21
616 -50 21
617 -50 21
618 -50 21
619 -42 20
620 -42 20
621 -42 20
622 -42 20
623 -42 20
624 -42 20
625 28 24
626 28 24
627 28 24
628 28 24
629 28 24
630 28 24
631 -12 -43
632 -12 -43
633 -24 28
634 -24 28
635 -24 28
636 35 26
637 35 26
638 35 26
639 35 26
640 35 26
641 -21 13
642 -21 13
643 -21 13
644 -21 13
645 -21 13
646 -21 13
647 -20 -40
648 -20 -40
649 -20 -40
650 -20 -40
651 -20 -40
652 46 22
653 46 22
654 46 22
655 46 22
656 46 22
657 46 22
658 -42 32
659 -42 32
660 -46 16
661 -46 16
662 -46 16
663 -46 16
664 -46 16
665 29 -18
666 29 -18
667 29 -18
668 -2 49
669 -2 49
670 40 11
671 40 11
672 40 11
673 40 11
674 2 21
675 2 21
676 2 21
677 2 21
678 2 21
679 15 24
680 15 24
681 15 24
682 15 24
683 15 24
684 15 24
685 50 -6
686 50 -6
687 50 -6
688 50 -6
689 -29 -11
690 -29 -11
691 12 -11
692 12 -11
693 12 -11
694 12 -11
695 12 -11
696 12 -11
DEMAND_SECTION
1 0
2 400
3 100
4 20
5 10
6 400
7 100
8 10
9 400
10 400
11 20
12 20
13 20
14 20
15 10
16 400
17 400
18 100
19 400
20 400
21 20
22 20
23 10
24 400
25 400
26 100
27 400
28 100
29 20
30 20
31 20
32 20
33 10
34 400
35 200
36 20
37 20
38 10
39 400
40 400
41 100
42 20
43 10
44 400
45 20
46 10
47 200
48 100
49 20
50 20
51 20
52 20
53 10
54 400
55 200
56 20
57 20
58 400
59 400
60 100
61 20
62 20
63 20
64 20
65 400
66 400
67 100
68 20
69 20
70 400
71 200
72 20
73 10
74 400
75 400
76 100
77 20
78 20
79 20
80 20
81 400
82 400
83 100
84 20
85 20
86 200
87 100
88 20
89 10
90 400
91 400
92 100
93 10
94 400
95 20
96 20
97 20
98 20
99 10
100 400
101 200
102 20
103 20
104 20
105 400
106 200
107 100
108 20
109 400
110 200
111 100
112 20
113 20
114 20
115 20
116 10
117 400
118 200
119 400
120 400
121 20
122 20
123 10
124 400
125 20
126 20
127 200
128 100
129 20
130 20
131 10
132 400
133 400
134 100
135 20
136 10
137 400
138 100
139 10
140 400
141 200
142 100
143 20
144 20
145 10
146 200
147 20
148 20
149 10
150 400
151 200
152 100
153 20
154 20
155 20
156 400
157 400
158 20
159 400
160 200
161 20
162 20
163 20
164 400
165 200
166 10
167 200
168 100
169 20
170 20
171 10
172 400
173 400
174 100
175 20
176 20
177 20
178 10
179 200
180 100
181 20
182 20
183 20
184 20
185 400
186 400
187 100
188 20
189 20
190 10
191 400
192 200
193 100
194 20
195 400
196 200
197 100
198 20
199 20
200 10
201 400
202 100
203 200
204 100
205 20
206 20
207 20
208 20
209 10
210 400
211 20
212 20
213 200
214 20
215 20
216 20
217 10
218 200
219 100
220 20
221 20
222 20
223 20
224 400
225 400
226 20
227 400
228 20
229 20
230 20
231 20
232 200
233 100
234 20
235 10
236 400
237 20
238 20
239 20
240 20
241 10
242 400
243 400
244 100
245 20
246 20
247 20
248 10
249 400
250 100
251 20
252 20
253 20
254 400
255 100
256 20
257 400
258 100
259 20
260 400
261 200
262 200
263 100
264 10
265 400
266 200
267 10
268 400
269 200
270 100
271 20
272 10
273 200
274 20
275 20
276 20
277 20
278 400
279 100
280 10
281 400
282 400
283 400
284 100
285 20
286 20
287 20
288 10
289 200
290 20
291 20
292 20
293 10
294 400
295 200
296 20
297 10
298 400
299 400
300 200
301 200
302 100
303 20
304 400
305 400
306 20
307 20
308 10
309 400
310 200
311 100
312 20
313 10
314 200
315 100
316 20
317 20
318 20
319 20
320 400
321 200
322 20
323 400
324 400
325 100
326 400
327 20
328 20
329 20
330 20
331 10
332 400
333 200
334 100
335 20
336 20
337 10
338 400
339 10
340 400
341 400
342 100
343 20
344 10
345 400
346 20
347 10
348 400
349 100
350 10
351 400
352 200
353 100
354 20
355 20
356 20
357 20
358 10
359 400
360 400
361 20
362 20
363 20
364 20
365 400
366 200
367 20
368 20
369 20
370 20
371 400
372 200
373 20
374 20
375 20
376 10
377 200
378 100
379 20
380 20
381 20
382 20
383 10
384 400
385 400
386 20
387 20
388 20
389 20
390 10
391 400
392 400
393 20
394 20
395 20
396 400
397 200
398 100
399 10
400 400
401 200
402 20
403 20
404 20
405 20
406 10
407 200
408 100
409 20
410 20
411 20
412 10
413 400
414 400
415 20
416 20
417 10
418 400
419 100
420 10
421 400
422 200
423 20
424 20
425 20
426 20
427 400
428 400
429 100
430 200
431 20
432 20
433 20
434 20
435 10
436 200
437 20
438 20
439 20
440 20
441 400
442 20
443 20
444 20
445 20
446 400
447 200
448 10
449 400
450 400
451 100
452 20
453 20
454 400
455 400
456 200
457 400
458 400
459 20
460 10
461 400
462 100
463 400
464 200
465 10
466 400
467 200
468 100
469 20
470 20
471 20
472 20
473 10
474 400
475 400
476 10
477 400
478 20
479 20
480 20
481 10
482 400
483 100
484 20
485 20
486 20
487 400
488 100
489 10
490 400
491 400
492 400
493 100
494 20
495 20
496 20
497 20
498 10
499 400
500 200
501 20
502 20
503 400
504 200
505 200
506 100
507 20
508 400
509 200
510 20
511 20
512 20
513 20
514 200
515 20
516 20
517 20
518 20
519 10
520 400
521 400
522 100
523 20
524 20
525 400
526 200
527 100
528 20
529 10
530 200
531 100
532 20
533 20
534 20
535 10
536 400
537 400
538 100
539 200
540 100
541 20
542 20
543 20
544 10
545 400
546 20
547 200
548 100
549 10
550 400
551 200
552 20
553 10
554 400
555 400
556 20
557 20
558 20
559 10
560 200
561 20
562 20
563 20
564 10
565 400
566 20
567 400
568 200
569 100
570 20
571 10
572 200
573 100
574 20
575 20
576 10
577 400
578 400
579 100
580 20
581 20
582 20
583 20
584 10
585 400
586 400
587 100
588 20
589 20
590 10
591 400
592 200
593 100
594 20
595 400
596 200
597 100
598 20
599 20
600 20
601 20
602 10
603 400
604 200
605 100
606 20
607 20
608 20
609 400
610 200
611 20
612 10
613 400
614 400
615 20
616 20
617 20
618 10
619 400
620 20
621 20
622 20
623 20
624 10
625 400
626 400
627 20
628 20
629 20
630 20
631 200
632 100
633 400
634 20
635 10
636 400
637 400
638 20
639 20
640 10
641 400
642 200
643 20
644 20
645 20
646 10
647 400
648 20
649 20
650 20
651 20
652 400
653 200
654 100
655 20
656 20
657 10
658 400
659 400
660 400
661 200
662 100
663 20
664 20
665 400
666 100
667 10
668 400
669 400
670 200
671 100
672 20
673 20
674 200
675 100
676 20
677 20
678 20
679 400
680 400
681 20
682 20
683 20
684 20
685 400
686 200
687 20
688 10
689 400
690 10
691 400
692 400
693 20
694 20
695 20
696 20
DEPOT_SECTION
1
-1
EOF