SDVRP instances/custom_instances/p04_16_splitx10_0.sol
695 -1 3 4 2 38 42 39 -12 10 14 9 8 545 544 104 106 107 105 -13 11 306 305 303 307 304 223 225 224 692 695 693 694 -18 19 690 489 490 -21 20 22 6 7 5 555 557 558 554 363 361 359 362 358 360 665 666 -23 24 25 664 227 229 226 230 228 315 314 318 316 317 -40 41 455 453 454 162 159 161 160 158 -50 52 48 51 46 47 49 437 436 438 435 439 63 60 61 62 58 57 116 -56 54 55 53 369 365 368 366 364 367 183 180 181 178 179 182 375 372 374 371 639 638 -59 117 37 36 35 33 34 396 395 282 285 -64 66 68 65 67 465 632 634 633 506 504 -72 70 71 69 148 145 147 146 517 516 514 513 518 515 631 630 345 344 346 -77 73 75 78 76 79 74 238 239 236 235 237 240 486 487 488 -80 81 84 82 83 92 91 89 90 -85 608 611 610 609 273 275 272 274 276 209 211 210 322 -88 87 86 460 461 463 462 464 592 590 591 593 607 -99 100 103 102 101 415 416 414 412 413 319 321 -120 122 121 118 119 520 522 523 521 519 320 -125 124 123 313 135 132 133 134 131 219 217 220 218 221 222 -128 129 427 426 428 404 405 403 401 399 400 402 571 574 572 575 573 -137 136 138 408 411 410 474 475 473 264 265 266 -142 141 140 144 143 139 277 279 278 525 528 527 524 526 -151 149 150 153 457 456 459 458 308 311 312 -154 152 551 552 549 550 193 191 192 190 480 477 476 479 478 -156 157 155 258 256 257 254 255 253 541 539 -163 165 164 45 44 43 184 185 189 188 187 186 -170 169 168 167 166 646 650 647 648 649 381 380 376 379 378 377 382 570 569 568 567 566 -174 177 176 175 173 171 172 259 260 691 -206 205 208 204 207 581 579 583 577 580 578 576 582 406 407 409 494 493 492 497 491 496 495 -214 213 215 212 216 340 341 343 339 342 200 201 432 434 433 430 431 429 -232 231 503 502 333 331 337 641 -234 233 347 349 348 441 443 444 442 440 617 614 616 615 613 612 619 620 623 622 338 -243 247 242 244 246 241 245 483 482 484 481 485 556 553 -248 249 250 251 252 660 661 659 662 663 618 621 335 334 336 332 -261 263 262 289 288 292 291 290 685 687 684 686 271 268 270 269 267 -280 281 679 678 680 683 682 681 310 309 -287 284 286 283 398 397 27 29 30 26 32 28 31 688 689 603 606 605 602 604 -296 294 295 293 536 535 537 672 671 670 669 418 419 -301 302 300 202 203 561 562 563 560 559 394 393 390 392 391 542 540 543 538 -324 323 298 299 297 644 643 645 640 642 -327 330 326 329 328 325 17 15 16 534 529 531 532 533 530 -356 353 355 354 350 357 352 351 95 96 98 97 94 93 422 425 421 420 424 423 -370 373 447 446 445 448 450 452 449 451 628 -417 388 384 387 385 383 386 389 507 510 512 511 508 509 -466 472 469 470 468 471 467 500 498 499 501 584 588 585 589 586 587 -505 194 196 199 195 198 197 657 658 547 548 546 -564 565 654 652 653 655 651 656 595 594 601 596 599 600 597 598 -626 624 629 625 627 127 126 130 635 637 636 -668 667 114 108 111 115 109 110 113 112 673 676 677 674 675 0 





OBJ=
4395.484
BEST_KNOWN=
0.000